language Essence 1.3

letting blksize_delta be
        function(1 --> 4, 2 --> 4, 3 --> 4, 4 --> 4, 5 --> 4, 6 --> 4, 7 --> 4, 8 --> 4, 9 --> 4, 10 --> 4, 11 --> 4,
                 12 --> 4, 13 --> 4)
letting maxcars be
        function(1 --> 10, 2 --> 10, 3 --> 10, 4 --> 10, 5 --> 10, 6 --> 10, 7 --> 10, 8 --> 10, 9 --> 10, 10 --> 10,
                 11 --> 10, 12 --> 10, 13 --> 10)
letting n_cars be 182
letting n_classes be 2
letting n_options be 13
letting quantity be function(1 --> 98, 2 --> 84)
letting usage be
        relation((1, 1), (1, 2), (1, 3), (1, 4), (1, 5), (1, 6), (1, 7), (1, 8), (1, 10), (1, 11), (1, 12), (2, 9),
                 (2, 13))
$ Visualisation for usage
$  1  1
$  1  2
$  1  3
$  1  4
$  1  5
$  1  6
$  1  7
$  1  8
$  1 10
$  1 11
$  1 12
$  2  9
$  2 13

